750
[150,151,153,154,155,156,157,159,161,162,163,164,165,166,168,169,170,172,173,174,175,179,180,181,182,183,185,186,188,189,195,196,197,198,199,200,202,204,207,208,210,211,213,217,219,221,222,223,227,228,229,230,231,232,233,236,237,239,241,242,243,244,246,248,249,250,253,254,255,256,257,258,259,263,264,266,267,269,270,271,272,273,278,281,282,283,284,285,287,290,293,297,298,299,301,303,304,306,308,309,310,311,315,318,319,321,322,323,329,330,331,334,335,336,338,339,343,344,346,347,349,350,351,352,354,356,357,361,362,364,365,366,368,369,370,371,372,373,374,375,376,377,379,380,381,382,384,387,388,389,391,392,393,394,395,398,399,400,402,403,407,408,409,411,412,414,416,418,421,423,424,426,427,428,429,430,431,434,435,436,437,438,439,440,441,442,443,444,446,448,449,451,452,454,456,457,459,460,462,463,465,466,468,469,470,471,472,475,476,477,478,479,480,481,483,484,491,492,493,496,497,500,501,503,506,507,509,511,512,513,515,518,519,520,521,522,524,525]
[1,3,2,2,1,2,2,2,1,3,2,3,2,2,1,2,2,1,3,1,3,2,2,1,1,1,1,1,2,1,3,1,4,1,1,3,1,1,2,4,2,1,1,3,2,2,1,1,2,1,3,1,1,4,1,1,2,1,2,1,1,1,2,1,2,3,2,1,1,1,1,1,1,1,1,4,1,1,1,3,2,1,1,1,6,2,1,3,2,1,1,3,1,2,2,2,4,1,1,2,3,2,1,1,1,2,1,2,3,1,1,1,1,1,1,1,1,1,1,1,2,1,1,1,1,1,3,1,3,1,3,2,2,1,2,1,2,1,1,2,3,1,4,3,3,2,1,1,2,1,1,3,1,1,1,3,5,1,1,1,1,1,2,2,1,2,2,2,1,1,4,1,1,1,1,2,1,1,2,2,2,1,1,1,2,1,1,2,1,1,1,3,1,1,2,4,1,1,1,1,1,2,2,3,1,5,2,2,3,1,2,2,2,1,2,2,2,1,1,2,2,1,1,2,2,1,1,1,1,3,1,1,2,3,1,2,1,1]
